\ This file has been generated by DOcplex
\ ENCODING=ISO-8859-1
\Problem name: AMC Linear Optimization for 3ADMM-H

Minimize
 obj: x_0 + y_0 + u_0
Subject To
 Constraint: 117 x_0 + 46 y_0 + 108 u_0 = 540

Bounds
 0 <= x_0 <= 1
 0 <= y_0 <= 1

Binaries
 x_0 y_0
End
